stanene                                 
   1.00000000000000     
     4.7167834499183163    0.0532707297082862    0.0031494839847733
    -2.4041600216700099    4.0580019840837744   -0.0030366034422917
     0.1157626565077167    0.1187331554511717   35.5781950681778838
   Sn   H 
     2     2
Direct
  0.6661782072294352  0.3330394355704131  0.5115584972181250
  0.3338217927705645  0.6669605644295866  0.4884415027818752
  0.6640457125791253  0.3317626704033085  0.5603563739828320
  0.3359542874208748  0.6682373295966914  0.4396436260171678
 
  0.00000000E+00  0.00000000E+00  0.00000000E+00
  0.00000000E+00  0.00000000E+00  0.00000000E+00
  0.00000000E+00  0.00000000E+00  0.00000000E+00
  0.00000000E+00  0.00000000E+00  0.00000000E+00
