stanene                                 
   1.00000000000000     
     5.0196522611030430    0.0478873326123884    0.0200815085296018
    -2.5515590447639793    4.3265252866154897    0.0020500666711489
     0.1071581104698876    0.0711033858421724   33.8323772791889823
   Sn   F 
     2     2
Direct
  0.6660920641104380  0.3329193636539738  0.5077138224700721
  0.3339079358895622  0.6670806363460261  0.4922861775299281
  0.6621050677540171  0.3307764497390159  0.5659617135960363
  0.3378949322459830  0.6692235502609840  0.4340382864039637
 
  0.00000000E+00  0.00000000E+00  0.00000000E+00
  0.00000000E+00  0.00000000E+00  0.00000000E+00
  0.00000000E+00  0.00000000E+00  0.00000000E+00
  0.00000000E+00  0.00000000E+00  0.00000000E+00
