stanene                                 
   1.00000000000000     
     4.9398619985848509    0.0559718956879798    0.0092606128217648
    -2.5177138838862492    4.2500881985832848   -0.0027699280483627
     0.1620707635190652    0.1474996911398957   32.4358096127843254
   Sn   Cl
     2     2
Direct
  0.6659852325051523  0.3329344169821608  0.5103023661081754
  0.3340147674948472  0.6670655830178389  0.4896976338918247
  0.6612841098385051  0.3302144695342351  0.5835201795094368
  0.3387158901614949  0.6697855304657649  0.4164798204905632
 
  0.00000000E+00  0.00000000E+00  0.00000000E+00
  0.00000000E+00  0.00000000E+00  0.00000000E+00
  0.00000000E+00  0.00000000E+00  0.00000000E+00
  0.00000000E+00  0.00000000E+00  0.00000000E+00
