stanene_I                               
   1.00000000000000     
     4.9038411907995441    0.0509527057170415    0.0079267169433254
    -2.4942426496991690    4.2212642262397662   -0.0029184394242775
     0.1486960175157628    0.1437623514168464   32.6564350990400172
   Sn   I 
     2     2
Direct
  0.6660700592307643  0.3329462133449625  0.5114861795726731
  0.3339299407692356  0.6670537866550373  0.4885138204273268
  0.6607937794989421  0.3297819341279660  0.5953807183857663
  0.3392062205010578  0.6702180658720338  0.4046192816142339
 
  0.00000000E+00  0.00000000E+00  0.00000000E+00
  0.00000000E+00  0.00000000E+00  0.00000000E+00
  0.00000000E+00  0.00000000E+00  0.00000000E+00
  0.00000000E+00  0.00000000E+00  0.00000000E+00
