Primitive Cell
  1.000000
    4.67589852290675    0.00000000000000    0.00000000000000
   -2.33794926145338    4.04944690635538    0.00000000000000
    0.00000000000000    0.00000000000000   24.24805276582715
  Sn
   2
DIRECT
    0.6666666666666666    0.3333333333333333    0.5175159460606974    Sn1
    0.3333333333333334    0.6666666666666667    0.4824840539393026    Sn2
