stanene_Br                              
   1.00000000000000     
     4.9178110413030538    0.0552012378926429    0.0084679669361409
    -2.5057172762185553    4.2306726928978895   -0.0027677453555427
     0.1560424673370265    0.1450176749259132   32.5299698033024782
   Sn   Br
     2     2
Direct
  0.6660657738067465  0.3329790284787522  0.5108788481300315
  0.3339342261932538  0.6670209715212482  0.4891211518699683
  0.6611750215671246  0.3301311429743972  0.5886107634889509
  0.3388249784328760  0.6698688570256027  0.4113892365110491
 
  0.00000000E+00  0.00000000E+00  0.00000000E+00
  0.00000000E+00  0.00000000E+00  0.00000000E+00
  0.00000000E+00  0.00000000E+00  0.00000000E+00
  0.00000000E+00  0.00000000E+00  0.00000000E+00
